# Solution for model GasLib-11
# Objective value = 4.0191838805957069e+01
loadshed[N01] 0
loadshed[N02] 0
loadshed[N03] 0
loadshed[N04] 0
loadshed[N05] 0
loadshed[entry01] 6.3849768989428912e-01
loadshed[entry03] 0
loadshed[entry02] 5.8685450273633055e-01
loadshed[exit01] 3.0475254173782895e-01
loadshed[exit02] 8.0768336080162362e-01
loadshed[exit03] 7.1152504120243520e-01
flow[entry01,entry03] 12.6124139303548
flow[N01,N02] 25.2248278607096
flow[entry02,N03] 12.6124139303548
flow[N02,exit01] 1.5160257075994565e+01
flow[N02,N04] 1.0064570784715034e+01
flow[N03,N04] 0
flow[N05,exit02] 5.0322853923575170e+00
flow[N05,exit03] 5.0322853923575179e+00
flow[entry03,N01] 12.6124139303548
flow[N04,N05] 1.0064570784715034e+01
flow[N01,N03] -12.6124139303548
pressure[N01] 6.2860560856659120e+01
pressure[N02] 4.8581682569977396e+01
pressure[N03] 6.2860560856659120e+01
pressure[N04] 4.2884486853273067e+01
pressure[N05] 4.2884486853273067e+01
pressure[entry01] 70
pressure[entry03] 6.2860560856659120e+01
pressure[entry02] 70
pressure[exit01] 40
pressure[exit02] 40
pressure[exit03] 40
interdiction[entry01,entry03] 0
interdiction[N01,N02] 0
interdiction[entry02,N03] 0
interdiction[N02,exit01] 0
interdiction[N02,N04] 0
interdiction[N03,N04] 1
interdiction[N05,exit02] 0
interdiction[N05,exit03] 0
interdiction[entry03,N01] 0
interdiction[N04,N05] 0
interdiction[N01,N03] 0
WCcheckFlow[entry01,entry03] 10
WCcheckFlow[N01,N02] 6
WCcheckFlow[entry02,N03] -1
WCcheckFlow[N02,exit01] 1
WCcheckFlow[N02,N04] 4
WCcheckFlow[N03,N04] 0
WCcheckFlow[N05,exit02] 1
WCcheckFlow[N05,exit03] 1
WCcheckFlow[entry03,N01] 9
WCcheckFlow[N04,N05] 3
WCcheckFlow[N01,N03] 2
